
Gurobi 9.5.0 (linux64) logging started Sat Nov  4 17:02:58 2023

Set parameter LogFile to value "/lustre1/scratch/348/vsc34888/JointResearch/05.Models/06.Benchmarking/D.Representative_days_based_on_RES_and_Demand/RTS24_ByStages_nc50/openStarNet_RTS24_ByStages_nc50.log"
Set parameter Method to value 2
Set parameter MIPFocus to value 1
Set parameter Presolve to value 2
Set parameter RINS to value 100
Set parameter MIPGap to value 0.01
Set parameter Threads to value 36
Set parameter TimeLimit to value 604800
Set parameter IterationLimit to value 760000000
Gurobi Optimizer version 9.5.0 build v9.5.0rc5 (linux64)
Thread count: 36 physical cores, 36 logical processors, using up to 36 threads
Optimize a model with 23339 rows, 13167 columns and 61454 nonzeros
Model fingerprint: 0xef1037bc
Variable types: 13128 continuous, 39 integer (39 binary)
Coefficient statistics:
  Matrix range     [6e-03, 2e+03]
  Objective range  [1e+00, 1e+00]
  Bounds range     [4e-04, 3e+00]
  RHS range        [4e-04, 3e+00]
Presolve removed 11939 rows and 5819 columns
Presolve time: 0.09s
Presolved: 11400 rows, 7348 columns, 39659 nonzeros
Variable types: 7309 continuous, 39 integer (39 binary)
Found heuristic solution: objective 61.2147269
Root relaxation presolved: 11400 rows, 7348 columns, 39659 nonzeros

Root barrier log...

Ordering time: 0.00s

Barrier statistics:
 Dense cols : 39
 AA' NZ     : 8.435e+04
 Factor NZ  : 2.830e+05 (roughly 10 MB of memory)
 Factor Ops : 8.910e+06 (less than 1 second per iteration)
 Threads    : 36

                  Objective                Residual
Iter       Primal          Dual         Primal    Dual     Compl     Time
   0   5.80217411e+05 -5.01681618e+07  4.24e+00 2.68e+02  6.04e+03     0s
   1   5.53787306e+04 -1.30144338e+07  3.48e-01 1.10e-09  7.42e+02     0s
   2   1.34180822e+04 -1.59454499e+06  5.39e-03 1.21e-09  7.00e+01     0s
   3   7.41376586e+03 -1.54786868e+05  1.27e-12 1.29e-10  6.99e+00     0s
   4   1.47480412e+03 -1.43555004e+04  9.04e-13 7.15e-12  6.82e-01     0s
   5   3.85435408e+02 -5.24609059e+03  3.96e-13 2.47e-12  2.43e-01     0s
   6   2.58923445e+02 -1.38772499e+03  2.36e-13 9.09e-13  7.10e-02     0s
   7   1.70456222e+02 -4.79495351e+02  2.47e-13 9.09e-13  2.80e-02     0s
   8   1.15685108e+02 -1.07939264e+02  1.88e-13 9.09e-13  9.64e-03     0s
   9   8.59275914e+01 -2.00001598e+01  1.57e-13 1.82e-12  4.57e-03     0s
  10   5.64976204e+01  2.37808287e+01  1.40e-13 9.09e-13  1.41e-03     0s
  11   4.98152702e+01  3.61499395e+01  7.66e-13 9.09e-13  5.89e-04     0s
  12   4.80840033e+01  4.27468103e+01  1.02e-12 9.09e-13  2.30e-04     0s
  13   4.76359886e+01  4.39893039e+01  1.13e-12 9.09e-13  1.57e-04     0s
  14   4.69305277e+01  4.45942878e+01  1.66e-11 9.09e-13  1.01e-04     0s
  15   4.65600158e+01  4.52507140e+01  9.96e-12 9.09e-13  5.64e-05     0s
  16   4.62468097e+01  4.58849515e+01  6.61e-12 9.09e-13  1.56e-05     0s
  17   4.61904478e+01  4.60111526e+01  2.45e-11 9.09e-13  7.73e-06     0s
  18   4.60542485e+01  4.60300432e+01  4.40e-11 9.09e-13  1.04e-06     0s
  19   4.60527865e+01  4.60459519e+01  2.97e-11 1.82e-12  2.95e-07     0s
  20   4.60483355e+01  4.60481720e+01  1.92e-10 9.09e-13  7.05e-09     0s
  21   4.60482630e+01  4.60482626e+01  8.32e-10 9.09e-13  1.69e-11     1s

Barrier solved model in 21 iterations and 0.51 seconds (0.35 work units)
Optimal objective 4.60482630e+01


Root relaxation: objective 4.604826e+01, 770 iterations, 0.37 seconds (0.18 work units)

    Nodes    |    Current Node    |     Objective Bounds      |     Work
 Expl Unexpl |  Obj  Depth IntInf | Incumbent    BestBd   Gap | It/Node Time

     0     0   46.04826    0    6   61.21473   46.04826  24.8%     -    0s
H    0     0                      56.8286010   46.04826  19.0%     -    0s
     0     0   46.86550    0    8   56.82860   46.86550  17.5%     -    0s
H    0     0                      56.8081972   46.86550  17.5%     -    0s
     0     0   47.02426    0    8   56.80820   47.02426  17.2%     -    0s
     0     0   47.96158    0    8   56.80820   47.96158  15.6%     -    1s
     0     0   47.96158    0    8   56.80820   47.96158  15.6%     -    1s
     0     0   48.17736    0    8   56.80820   48.17736  15.2%     -    1s
     0     0   48.17736    0    8   56.80820   48.17736  15.2%     -    1s
     0     0   49.28954    0    8   56.80820   49.28954  13.2%     -    1s
H    0     0                      56.6510882   49.28954  13.0%     -    1s
H    0     0                      55.7034081   49.28954  11.5%     -    1s
     0     0   49.30177    0    9   55.70341   49.30177  11.5%     -    1s
     0     0   49.42921    0    9   55.70341   49.42921  11.3%     -    1s
     0     0   49.42921    0    9   55.70341   49.42921  11.3%     -    1s
     0     0   49.42921    0    9   55.70341   49.42921  11.3%     -    1s
     0     0   49.60034    0    9   55.70341   49.60034  11.0%     -    1s
     0     0   49.91409    0    9   55.70341   49.91409  10.4%     -    2s
     0     0   49.91409    0    9   55.70341   49.91409  10.4%     -    2s
     0     0   49.91409    0    9   55.70341   49.91409  10.4%     -    2s
     0     0   49.95834    0    9   55.70341   49.95834  10.3%     -    2s
H    0     0                      54.4432118   49.95834  8.24%     -    4s
     0     2   49.95834    0    9   54.44321   49.95834  8.24%     -    4s
   123    24   53.53057    9    2   54.44321   52.85824  2.91%   165    8s
   148    23   54.00146   10    2   54.44321   52.91040  2.82%   151   10s

Cutting planes:
  Gomory: 4
  Implied bound: 15
  MIR: 295

Explored 207 nodes (28232 simplex iterations) in 10.82 seconds (13.94 work units)
Thread count was 36 (of 36 available processors)

Solution count 6: 54.4432 55.7034 56.6511 ... 61.2147

Optimal solution found (tolerance 1.00e-02)
Best objective 5.444321183085e+01, best bound 5.424165413252e+01, gap 0.3702%

Gurobi 9.5.0 (linux64) logging started Sat Nov  4 17:03:11 2023

Set parameter LogFile to value "/lustre1/scratch/348/vsc34888/JointResearch/05.Models/06.Benchmarking/D.Representative_days_based_on_RES_and_Demand/RTS24_ByStages_nc50/openStarNet_RTS24_ByStages_nc50.log"
Set parameter Method to value 2
Set parameter MIPFocus to value 1
Set parameter Presolve to value 2
Set parameter RINS to value 100
Set parameter MIPGap to value 0.01
Set parameter Threads to value 36
Set parameter TimeLimit to value 604800
Set parameter IterationLimit to value 760000000
No parameters matching 'relax_integrality' found
Gurobi Optimizer version 9.5.0 build v9.5.0rc5 (linux64)
Thread count: 36 physical cores, 36 logical processors, using up to 36 threads
Optimize a model with 23339 rows, 13128 columns and 53615 nonzeros
Model fingerprint: 0xcae987c2
Coefficient statistics:
  Matrix range     [6e-03, 2e+03]
  Objective range  [1e+00, 1e+00]
  Bounds range     [4e-04, 3e+00]
  RHS range        [4e-04, 1e+01]
Presolve removed 18895 rows and 6531 columns
Presolve time: 0.02s
Presolved: 4444 rows, 6697 columns, 16035 nonzeros

Ordering time: 0.00s

Barrier statistics:
 AA' NZ     : 1.057e+04
 Factor NZ  : 4.616e+04 (roughly 4 MB of memory)
 Factor Ops : 6.762e+05 (less than 1 second per iteration)
 Threads    : 1

                  Objective                Residual
Iter       Primal          Dual         Primal    Dual     Compl     Time
   0   6.86288960e+05 -1.27956945e+08  5.05e+00 6.52e+02  2.07e+04     0s
   1   8.00982078e+04 -1.76730328e+07  4.61e-01 1.60e-11  2.05e+03     0s
   2   4.11788358e+04 -2.36043963e+06  1.23e-01 1.53e-11  2.55e+02     0s
   3   2.23970928e+04 -3.39640686e+05  3.47e-03 1.18e-11  3.20e+01     0s
   4   8.46816769e+03 -5.14163119e+04  4.90e-05 3.25e-11  5.25e+00     0s
   5   2.62530969e+03 -9.88084950e+03  1.26e-05 4.35e-12  1.10e+00     0s
   6   4.23833199e+02 -2.73257331e+03  1.08e-06 3.64e-12  2.77e-01     0s
   7   1.54505869e+02 -3.76894657e+02  3.26e-08 3.64e-12  4.66e-02     0s
   8   9.40740135e+01 -6.25558603e+01  4.77e-09 1.82e-12  1.37e-02     0s
   9   7.51631660e+01  8.71896581e+00  2.20e-09 3.64e-12  5.83e-03     0s
  10   6.26809977e+01  3.68958412e+01  7.56e-10 3.64e-12  2.26e-03     0s
  11   5.81423024e+01  4.62147718e+01  3.28e-10 3.64e-12  1.05e-03     0s
  12   5.56678370e+01  5.32080841e+01  1.02e-10 3.64e-12  2.16e-04     0s
  13   5.45327513e+01  5.42521677e+01  1.07e-11 3.64e-12  2.46e-05     0s
  14   5.44459992e+01  5.44246395e+01  1.18e-11 3.64e-12  1.87e-06     0s
  15   5.44432982e+01  5.44430086e+01  4.09e-11 3.64e-12  2.54e-08     0s
  16   5.44432118e+01  5.44432118e+01  5.82e-12 3.64e-12  8.90e-13     0s
  17   5.44432118e+01  5.44432118e+01  8.96e-12 3.64e-12  1.16e-17     0s

Barrier solved model in 17 iterations and 0.08 seconds (0.07 work units)
Optimal objective 5.44432118e+01

Crossover log...

     593 DPushes remaining with DInf 0.0000000e+00                 0s
       0 DPushes remaining with DInf 0.0000000e+00                 0s

     226 PPushes remaining with PInf 0.0000000e+00                 0s
       0 PPushes remaining with PInf 0.0000000e+00                 0s

  Push phase complete: Pinf 0.0000000e+00, Dinf 9.8477894e-13      0s

Iteration    Objective       Primal Inf.    Dual Inf.      Time
     247    5.4443212e+01   0.000000e+00   0.000000e+00      0s

Use crossover to convert LP symmetric solution to basic solution...
Crossover log...

       0 DPushes remaining with DInf 0.0000000e+00                 0s

     154 PPushes remaining with PInf 0.0000000e+00                 0s
       0 PPushes remaining with PInf 0.0000000e+00                 0s

  Push phase complete: Pinf 0.0000000e+00, Dinf 1.1788500e-12      0s

Iteration    Objective       Primal Inf.    Dual Inf.      Time
     422    5.4443212e+01   0.000000e+00   0.000000e+00      0s

Solved in 422 iterations and 0.12 seconds (0.09 work units)
Optimal objective  5.444321183e+01
